(set-logic QF_SLIA)
(declare-fun var0 () String)
(assert (str.in_re var0 (re.++ ((_ re.loop 15 678) (re.++ (re.union (str.to_re "5?B") (re.union (str.to_re "m") (re.union (str.to_re "rfb") (str.to_re "[")))) (re.++ (re.union (str.to_re ")ic") (re.union (str.to_re "$~+") (re.union (str.to_re "%T") (str.to_re "CmX")))) (re.++ (re.union (str.to_re "z") (re.union (str.to_re "E*n") (re.union (str.to_re "cgR") (str.to_re "m")))) (re.union (str.to_re "{8A") (re.union (str.to_re "_") (re.union (str.to_re "ZD4") (str.to_re "2=E")))))))) (re.++ ((_ re.loop 17 197) (re.++ (re.union (str.to_re "o") (re.union (str.to_re "DN7") (re.union (str.to_re "d]W") (str.to_re "]")))) (re.++ (re.union (str.to_re "D&)") (re.union (str.to_re "~9v") (re.union (str.to_re "L") (str.to_re "c")))) (re.++ (re.union (str.to_re "|=") (re.union (str.to_re "I") (re.union (str.to_re "Y\\(") (str.to_re "/w5")))) (re.union (str.to_re "Vt") (re.union (str.to_re "w") (re.union (str.to_re "uSE") (str.to_re "?#")))))))) (re.++ ((_ re.loop 12 939) (re.++ (re.union (str.to_re "Vkh") (re.union (str.to_re "vg") (re.union (str.to_re "y") (str.to_re ">f[")))) (re.++ (re.union (str.to_re "d@Q") (re.union (str.to_re "O") (re.union (str.to_re "Y>G") (str.to_re "/rr")))) (re.++ (re.union (str.to_re "n5@") (re.union (str.to_re "Y") (re.union (str.to_re ">tN") (str.to_re "bi")))) (re.union (str.to_re "Pq2") (re.union (str.to_re "',}") (re.union (str.to_re "u") (str.to_re "_fZ")))))))) ((_ re.loop 18 959) (re.++ (re.union (str.to_re "~%H") (re.union (str.to_re "M") (re.union (str.to_re "&") (str.to_re "d{")))) (re.++ (re.union (str.to_re "SVY") (re.union (str.to_re "o") (re.union (str.to_re ">=") (str.to_re "%")))) (re.++ (re.union (str.to_re "TvX") (re.union (str.to_re "=") (re.union (str.to_re "Z") (str.to_re "uGB")))) (re.union (str.to_re "%") (re.union (str.to_re "&\\P") (re.union (str.to_re "idn") (str.to_re ";")))))))))))))
(assert (not (str.in_re var0 (re.++ ((_ re.loop 8 705) (re.++ (re.union (str.to_re "t") (re.union (str.to_re "Acf") (re.union (str.to_re "R") (str.to_re "a%")))) (re.++ (re.union (str.to_re "-a\u0022") (re.union (str.to_re "R(R") (re.union (str.to_re "<") (str.to_re ":At")))) (re.++ (re.union (str.to_re "6/$") (re.union (str.to_re "`") (re.union (str.to_re "d") (str.to_re "F")))) (re.union (str.to_re "m1K") (re.union (str.to_re "B/") (re.union (str.to_re "Cg;") (str.to_re "b")))))))) (re.++ ((_ re.loop 9 898) (re.++ (re.union (str.to_re "3") (re.union (str.to_re "~") (re.union (str.to_re "3H") (str.to_re "#8/")))) (re.++ (re.union (str.to_re "#Kp") (re.union (str.to_re "wnC") (re.union (str.to_re ")N") (str.to_re "T")))) (re.++ (re.union (str.to_re "I+") (re.union (str.to_re ">/N") (re.union (str.to_re ":") (str.to_re "48f")))) (re.union (str.to_re "Xzk") (re.union (str.to_re "$") (re.union (str.to_re "s") (str.to_re "L")))))))) (re.++ ((_ re.loop 0 369) (re.++ (re.union (str.to_re "V#k") (re.union (str.to_re "yh") (re.union (str.to_re "R:-") (str.to_re "^9+")))) (re.++ (re.union (str.to_re "G") (re.union (str.to_re "+k") (re.union (str.to_re "o^;") (str.to_re "*K")))) (re.++ (re.union (str.to_re "P") (re.union (str.to_re "i") (re.union (str.to_re "hC") (str.to_re "8K_")))) (re.union (str.to_re "^UT") (re.union (str.to_re "+") (re.union (str.to_re "g9I") (str.to_re "}Y")))))))) ((_ re.loop 18 973) (re.++ (re.union (str.to_re "+h") (re.union (str.to_re "~") (re.union (str.to_re "Gw") (str.to_re "Suq")))) (re.++ (re.union (str.to_re "'g") (re.union (str.to_re ">WS") (re.union (str.to_re "^07") (str.to_re "j5w")))) (re.++ (re.union (str.to_re "=.") (re.union (str.to_re "\\") (re.union (str.to_re "TY") (str.to_re "(")))) (re.union (str.to_re "\\)V") (re.union (str.to_re "HC#") (re.union (str.to_re ":ul") (str.to_re "kU"))))))))))))))
(assert (not (str.in_re var0 (re.++ (re.* re.allchar) (re.++ (re.union (str.to_re "<") (re.union (str.to_re ">") (re.union (str.to_re "'") (re.union (str.to_re "\u0022") (str.to_re "&"))))) (re.* re.allchar))))))
(assert (<= 50 (str.len var0)))
(check-sat)
(get-model)
